language Essence 1.3

letting blksize_delta be function(1 --> 3, 2 --> 3, 3 --> 2, 4 --> 2, 5 --> 2)
letting maxcars be function(1 --> 10, 2 --> 10, 3 --> 10, 4 --> 10, 5 --> 10)
letting n_cars be 288
letting n_classes be 176
letting n_options be 5
letting quantity be
        function(1 --> 11, 2 --> 86, 3 --> 13, 4 --> 2, 5 --> 2, 6 --> 3, 7 --> 1, 8 --> 2, 9 --> 1, 10 --> 1, 11 --> 1,
                 12 --> 1, 13 --> 1, 14 --> 1, 15 --> 1, 16 --> 1, 17 --> 1, 18 --> 1, 19 --> 1, 20 --> 1, 21 --> 1,
                 22 --> 1, 23 --> 1, 24 --> 1, 25 --> 1, 26 --> 1, 27 --> 1, 28 --> 1, 29 --> 1, 30 --> 1, 31 --> 1,
                 32 --> 1, 33 --> 1, 34 --> 1, 35 --> 1, 36 --> 1, 37 --> 1, 38 --> 1, 39 --> 1, 40 --> 1, 41 --> 1,
                 42 --> 1, 43 --> 1, 44 --> 1, 45 --> 1, 46 --> 1, 47 --> 1, 48 --> 1, 49 --> 1, 50 --> 1, 51 --> 1,
                 52 --> 1, 53 --> 1, 54 --> 1, 55 --> 1, 56 --> 1, 57 --> 1, 58 --> 1, 59 --> 1, 60 --> 1, 61 --> 1,
                 62 --> 1, 63 --> 1, 64 --> 1, 65 --> 1, 66 --> 1, 67 --> 1, 68 --> 1, 69 --> 1, 70 --> 1, 71 --> 1,
                 72 --> 1, 73 --> 1, 74 --> 1, 75 --> 1, 76 --> 1, 77 --> 1, 78 --> 1, 79 --> 1, 80 --> 1, 81 --> 1,
                 82 --> 1, 83 --> 1, 84 --> 1, 85 --> 1, 86 --> 1, 87 --> 1, 88 --> 1, 89 --> 1, 90 --> 1, 91 --> 1,
                 92 --> 1, 93 --> 1, 94 --> 1, 95 --> 1, 96 --> 1, 97 --> 1, 98 --> 1, 99 --> 1, 100 --> 1, 101 --> 1,
                 102 --> 1, 103 --> 1, 104 --> 1, 105 --> 1, 106 --> 1, 107 --> 1, 108 --> 1, 109 --> 1, 110 --> 1,
                 111 --> 1, 112 --> 1, 113 --> 1, 114 --> 1, 115 --> 1, 116 --> 1, 117 --> 1, 118 --> 1, 119 --> 1,
                 120 --> 1, 121 --> 1, 122 --> 1, 123 --> 1, 124 --> 1, 125 --> 1, 126 --> 1, 127 --> 1, 128 --> 1,
                 129 --> 1, 130 --> 1, 131 --> 1, 132 --> 1, 133 --> 1, 134 --> 1, 135 --> 1, 136 --> 1, 137 --> 1,
                 138 --> 1, 139 --> 1, 140 --> 1, 141 --> 1, 142 --> 1, 143 --> 1, 144 --> 1, 145 --> 1, 146 --> 1,
                 147 --> 1, 148 --> 1, 149 --> 1, 150 --> 1, 151 --> 1, 152 --> 1, 153 --> 1, 154 --> 1, 155 --> 1,
                 156 --> 1, 157 --> 1, 158 --> 1, 159 --> 1, 160 --> 1, 161 --> 1, 162 --> 1, 163 --> 1, 164 --> 1,
                 165 --> 1, 166 --> 1, 167 --> 1, 168 --> 1, 169 --> 1, 170 --> 1, 171 --> 1, 172 --> 1, 173 --> 1,
                 174 --> 1, 175 --> 1, 176 --> 1)
letting usage be
        relation((1, 5), (2, 1), (2, 2), (2, 5), (3, 1), (3, 3), (3, 4), (3, 5), (4, 1), (4, 2), (4, 5), (5, 5), (6, 1),
                 (6, 3), (7, 3), (7, 5), (8, 1), (8, 3), (8, 4), (8, 5), (9, 1), (9, 5), (10, 1), (10, 5), (11, 1),
                 (11, 5), (12, 1), (13, 5), (14, 1), (15, 5), (16, 1), (16, 2), (17, 2), (17, 4), (18, 2), (19, 2),
                 (20, 1), (20, 4), (21, 1), (21, 2), (22, 1), (23, 3), (24, 1), (24, 5), (25, 1), (25, 2), (25, 5),
                 (26, 2), (26, 4), (26, 5), (27, 1), (27, 2), (27, 3), (28, 1), (28, 3), (28, 4), (29, 5), (30, 5),
                 (31, 3), (32, 1), (32, 3), (32, 4), (32, 5), (33, 2), (33, 3), (33, 4), (34, 5), (35, 3), (36, 2),
                 (36, 4), (37, 3), (38, 2), (39, 1), (39, 4), (40, 2), (41, 1), (41, 2), (41, 4), (42, 1), (42, 4),
                 (43, 1), (43, 2), (43, 4), (44, 1), (45, 4), (46, 2), (46, 4), (47, 4), (48, 5), (49, 2), (49, 4),
                 (50, 1), (50, 3), (50, 4), (51, 2), (52, 1), (53, 1), (53, 3), (54, 1), (54, 3), (54, 4), (55, 4),
                 (56, 1), (56, 4), (57, 3), (57, 4), (58, 2), (58, 3), (59, 1), (60, 2), (61, 1), (62, 1), (63, 2),
                 (63, 3), (64, 2), (64, 3), (65, 2), (65, 3), (66, 4), (67, 5), (68, 5), (69, 3), (69, 4), (70, 1),
                 (71, 1), (71, 2), (71, 4), (72, 5), (73, 5), (74, 2), (74, 4), (75, 2), (75, 3), (75, 4), (76, 2),
                 (77, 4), (78, 4), (79, 3), (80, 1), (80, 2), (81, 2), (81, 4), (82, 1), (82, 3), (83, 3), (83, 4),
                 (84, 5), (85, 1), (85, 2), (86, 4), (87, 1), (88, 5), (89, 1), (89, 2), (90, 3), (91, 3), (92, 1),
                 (93, 2), (93, 3), (94, 1), (95, 2), (95, 3), (95, 4), (96, 3), (97, 1), (97, 2), (97, 3), (98, 1),
                 (98, 4), (99, 3), (99, 4), (100, 4), (101, 4), (102, 5), (103, 2), (103, 3), (104, 2), (104, 3),
                 (105, 1), (105, 4), (106, 1), (106, 4), (107, 1), (107, 3), (107, 4), (108, 5), (109, 1), (109, 3),
                 (109, 4), (110, 1), (110, 2), (110, 3), (111, 3), (111, 4), (112, 3), (113, 2), (114, 5), (115, 1),
                 (115, 2), (115, 4), (116, 5), (117, 1), (118, 1), (118, 4), (119, 2), (119, 3), (120, 2), (120, 3),
                 (121, 1), (121, 3), (122, 4), (123, 1), (123, 2), (123, 3), (123, 4), (124, 1), (124, 2), (124, 3),
                 (124, 4), (125, 1), (125, 2), (125, 4), (126, 2), (126, 3), (127, 3), (128, 1), (129, 3), (130, 1),
                 (131, 1), (131, 3), (132, 1), (132, 2), (132, 3), (132, 4), (133, 1), (133, 2), (133, 3), (133, 4),
                 (134, 3), (135, 3), (136, 2), (136, 4), (137, 3), (138, 2), (139, 1), (139, 2), (139, 4), (140, 2),
                 (141, 2), (142, 1), (143, 1), (143, 3), (144, 2), (145, 2), (145, 3), (146, 2), (146, 4), (147, 1),
                 (147, 4), (148, 1), (149, 3), (150, 1), (150, 3), (150, 4), (151, 1), (152, 1), (153, 2), (153, 3),
                 (153, 4), (154, 5), (155, 2), (155, 3), (156, 1), (156, 2), (157, 2), (157, 3), (157, 4), (158, 3),
                 (159, 1), (159, 3), (160, 1), (161, 1), (161, 2), (161, 3), (161, 4), (162, 1), (162, 4), (163, 1),
                 (163, 2), (164, 1), (164, 2), (165, 2), (165, 3), (166, 1), (166, 3), (167, 1), (167, 2), (167, 4),
                 (168, 1), (168, 2), (169, 1), (169, 2), (169, 3), (169, 4), (170, 2), (170, 4), (171, 1), (171, 4),
                 (172, 1), (172, 3), (172, 4), (173, 1), (173, 2), (173, 4), (174, 1), (174, 2), (174, 3), (175, 1),
                 (175, 2), (175, 4), (176, 1))
$ Visualisation for usage
$   1   5
$   2   1
$   2   2
$   2   5
$   3   1
$   3   3
$   3   4
$   3   5
$   4   1
$   4   2
$   4   5
$   5   5
$   6   1
$   6   3
$   7   3
$   7   5
$   8   1
$   8   3
$   8   4
$   8   5
$   9   1
$   9   5
$  10   1
$  10   5
$  11   1
$  11   5
$  12   1
$  13   5
$  14   1
$  15   5
$  16   1
$  16   2
$  17   2
$  17   4
$  18   2
$  19   2
$  20   1
$  20   4
$  21   1
$  21   2
$  22   1
$  23   3
$  24   1
$  24   5
$  25   1
$  25   2
$  25   5
$  26   2
$  26   4
$  26   5
$  27   1
$  27   2
$  27   3
$  28   1
$  28   3
$  28   4
$  29   5
$  30   5
$  31   3
$  32   1
$  32   3
$  32   4
$  32   5
$  33   2
$  33   3
$  33   4
$  34   5
$  35   3
$  36   2
$  36   4
$  37   3
$  38   2
$  39   1
$  39   4
$  40   2
$  41   1
$  41   2
$  41   4
$  42   1
$  42   4
$  43   1
$  43   2
$  43   4
$  44   1
$  45   4
$  46   2
$  46   4
$  47   4
$  48   5
$  49   2
$  49   4
$  50   1
$  50   3
$  50   4
$  51   2
$  52   1
$  53   1
$  53   3
$  54   1
$  54   3
$  54   4
$  55   4
$  56   1
$  56   4
$  57   3
$  57   4
$  58   2
$  58   3
$  59   1
$  60   2
$  61   1
$  62   1
$  63   2
$  63   3
$  64   2
$  64   3
$  65   2
$  65   3
$  66   4
$  67   5
$  68   5
$  69   3
$  69   4
$  70   1
$  71   1
$  71   2
$  71   4
$  72   5
$  73   5
$  74   2
$  74   4
$  75   2
$  75   3
$  75   4
$  76   2
$  77   4
$  78   4
$  79   3
$  80   1
$  80   2
$  81   2
$  81   4
$  82   1
$  82   3
$  83   3
$  83   4
$  84   5
$  85   1
$  85   2
$  86   4
$  87   1
$  88   5
$  89   1
$  89   2
$  90   3
$  91   3
$  92   1
$  93   2
$  93   3
$  94   1
$  95   2
$  95   3
$  95   4
$  96   3
$  97   1
$  97   2
$  97   3
$  98   1
$  98   4
$  99   3
$  99   4
$ 100   4
$ 101   4
$ 102   5
$ 103   2
$ 103   3
$ 104   2
$ 104   3
$ 105   1
$ 105   4
$ 106   1
$ 106   4
$ 107   1
$ 107   3
$ 107   4
$ 108   5
$ 109   1
$ 109   3
$ 109   4
$ 110   1
$ 110   2
$ 110   3
$ 111   3
$ 111   4
$ 112   3
$ 113   2
$ 114   5
$ 115   1
$ 115   2
$ 115   4
$ 116   5
$ 117   1
$ 118   1
$ 118   4
$ 119   2
$ 119   3
$ 120   2
$ 120   3
$ 121   1
$ 121   3
$ 122   4
$ 123   1
$ 123   2
$ 123   3
$ 123   4
$ 124   1
$ 124   2
$ 124   3
$ 124   4
$ 125   1
$ 125   2
$ 125   4
$ 126   2
$ 126   3
$ 127   3
$ 128   1
$ 129   3
$ 130   1
$ 131   1
$ 131   3
$ 132   1
$ 132   2
$ 132   3
$ 132   4
$ 133   1
$ 133   2
$ 133   3
$ 133   4
$ 134   3
$ 135   3
$ 136   2
$ 136   4
$ 137   3
$ 138   2
$ 139   1
$ 139   2
$ 139   4
$ 140   2
$ 141   2
$ 142   1
$ 143   1
$ 143   3
$ 144   2
$ 145   2
$ 145   3
$ 146   2
$ 146   4
$ 147   1
$ 147   4
$ 148   1
$ 149   3
$ 150   1
$ 150   3
$ 150   4
$ 151   1
$ 152   1
$ 153   2
$ 153   3
$ 153   4
$ 154   5
$ 155   2
$ 155   3
$ 156   1
$ 156   2
$ 157   2
$ 157   3
$ 157   4
$ 158   3
$ 159   1
$ 159   3
$ 160   1
$ 161   1
$ 161   2
$ 161   3
$ 161   4
$ 162   1
$ 162   4
$ 163   1
$ 163   2
$ 164   1
$ 164   2
$ 165   2
$ 165   3
$ 166   1
$ 166   3
$ 167   1
$ 167   2
$ 167   4
$ 168   1
$ 168   2
$ 169   1
$ 169   2
$ 169   3
$ 169   4
$ 170   2
$ 170   4
$ 171   1
$ 171   4
$ 172   1
$ 172   3
$ 172   4
$ 173   1
$ 173   2
$ 173   4
$ 174   1
$ 174   2
$ 174   3
$ 175   1
$ 175   2
$ 175   4
$ 176   1

